coords = array2d(1..37, 1..2, [486, 68, 871, 858, 272, 146, 36, 545, 360, 763,
    710, 820, 618, 752, 461, 6, 484, 873, 31, 186, 835, 51, 496, 909,
    702, 593, 460, 122, 680, 882, 532, 759, 925, 635, 304, 636, 585,
    404, 971, 24, 780, 320, 299, 459, 803, 181, 679, 870, 855, 728,
    162, 526, 616, 336, 930, 523, 258, 96, 422, 91, 205, 471, 361,
    601, 124, 682, 137, 749, 9, 245, 351, 468, 911, 495]);

n = 37;

